c 0.011452436447143555 (encode time in sec)
p cnf 322 1048
1 2 3 4 0
1 2 -3 4 0
1 -2 3 4 0
1 -2 -3 4 0
-1 2 3 4 0
-1 2 -3 4 0
-1 -2 3 4 0
-1 -2 -3 4 0
5 6 7 8 0
5 6 -7 8 0
5 -6 7 8 0
5 -6 -7 8 0
-5 6 7 8 0
-5 6 -7 8 0
-5 -6 7 8 0
-5 -6 -7 8 0
9 10 11 12 0
9 10 -11 12 0
9 -10 11 12 0
9 -10 -11 12 0
-9 10 11 12 0
-9 10 -11 12 0
-9 -10 11 12 0
-9 -10 -11 12 0
13 14 15 1 2 3 5 6 7 17 0
13 14 15 1 2 3 5 6 -7 113 0
13 14 15 1 2 3 5 -6 7 114 0
13 14 15 1 2 3 5 -6 -7 87 0
13 14 15 1 2 3 -5 6 7 86 0
13 14 15 1 2 3 -5 6 -7 75 0
13 14 15 1 2 3 -5 -6 7 81 0
13 14 15 1 2 3 -5 -6 -7 0
13 14 15 1 2 -3 5 6 7 115 0
13 14 15 1 2 -3 5 6 -7 18 0
13 14 15 1 2 -3 5 -6 7 154 0
13 14 15 1 2 -3 5 -6 -7 81 0
13 14 15 1 2 -3 -5 6 7 0
13 14 15 1 2 -3 -5 6 -7 0
13 14 15 1 2 -3 -5 -6 7 0
13 14 15 1 2 -3 -5 -6 -7 0
13 14 15 1 -2 3 5 6 7 48 0
13 14 15 1 -2 3 5 6 -7 46 0
13 14 15 1 -2 3 5 -6 7 124 0
13 14 15 1 -2 3 5 -6 -7 0
13 14 15 1 -2 3 -5 6 7 0
13 14 15 1 -2 3 -5 6 -7 0
13 14 15 1 -2 3 -5 -6 7 0
13 14 15 1 -2 3 -5 -6 -7 0
13 14 15 1 -2 -3 5 6 7 121 0
13 14 15 1 -2 -3 5 6 -7 62 0
13 14 15 1 -2 -3 5 -6 7 0
13 14 15 1 -2 -3 5 -6 -7 0
13 14 15 1 -2 -3 -5 6 7 0
13 14 15 1 -2 -3 -5 6 -7 0
13 14 15 1 -2 -3 -5 -6 7 0
13 14 15 1 -2 -3 -5 -6 -7 0
13 14 15 -1 2 3 5 6 7 19 0
13 14 15 -1 2 3 5 6 -7 116 0
13 14 15 -1 2 3 5 -6 7 0
13 14 15 -1 2 3 5 -6 -7 0
13 14 15 -1 2 3 -5 6 7 0
13 14 15 -1 2 3 -5 6 -7 0
13 14 15 -1 2 3 -5 -6 7 0
13 14 15 -1 2 3 -5 -6 -7 0
13 14 15 -1 2 -3 5 6 7 117 0
13 14 15 -1 2 -3 5 6 -7 0
13 14 15 -1 2 -3 5 -6 7 0
13 14 15 -1 2 -3 5 -6 -7 0
13 14 15 -1 2 -3 -5 6 7 0
13 14 15 -1 2 -3 -5 6 -7 0
13 14 15 -1 2 -3 -5 -6 7 0
13 14 15 -1 2 -3 -5 -6 -7 0
13 14 15 -1 -2 3 5 6 7 103 0
13 14 15 -1 -2 3 5 6 -7 0
13 14 15 -1 -2 3 5 -6 7 0
13 14 15 -1 -2 3 5 -6 -7 0
13 14 15 -1 -2 3 -5 6 7 0
13 14 15 -1 -2 3 -5 6 -7 0
13 14 15 -1 -2 3 -5 -6 7 0
13 14 15 -1 -2 3 -5 -6 -7 0
13 14 15 -1 -2 -3 5 6 7 116 0
13 14 15 -1 -2 -3 5 6 -7 0
13 14 15 -1 -2 -3 5 -6 7 0
13 14 15 -1 -2 -3 5 -6 -7 0
13 14 15 -1 -2 -3 -5 6 7 0
13 14 15 -1 -2 -3 -5 6 -7 0
13 14 15 -1 -2 -3 -5 -6 7 0
13 14 15 -1 -2 -3 -5 -6 -7 0
13 14 -15 1 2 3 5 6 7 0
13 14 -15 1 2 3 5 6 -7 119 0
13 14 -15 1 2 3 5 -6 7 154 0
13 14 -15 1 2 3 5 -6 -7 49 0
13 14 -15 1 2 3 -5 6 7 158 0
13 14 -15 1 2 3 -5 6 -7 132 0
13 14 -15 1 2 3 -5 -6 7 152 0
13 14 -15 1 2 3 -5 -6 -7 0
13 14 -15 1 2 -3 5 6 7 104 0
13 14 -15 1 2 -3 5 6 -7 57 0
13 14 -15 1 2 -3 5 -6 7 24 0
13 14 -15 1 2 -3 5 -6 -7 155 0
13 14 -15 1 2 -3 -5 6 7 125 0
13 14 -15 1 2 -3 -5 6 -7 0
13 14 -15 1 2 -3 -5 -6 7 0
13 14 -15 1 2 -3 -5 -6 -7 0
13 14 -15 1 -2 3 5 6 7 75 0
13 14 -15 1 -2 3 5 6 -7 21 0
13 14 -15 1 -2 3 5 -6 7 144 0
13 14 -15 1 -2 3 5 -6 -7 40 0
13 14 -15 1 -2 3 -5 6 7 0
13 14 -15 1 -2 3 -5 6 -7 0
13 14 -15 1 -2 3 -5 -6 7 0
13 14 -15 1 -2 3 -5 -6 -7 0
13 14 -15 1 -2 -3 5 6 7 153 0
13 14 -15 1 -2 -3 5 6 -7 120 0
13 14 -15 1 -2 -3 5 -6 7 58 0
13 14 -15 1 -2 -3 5 -6 -7 50 0
13 14 -15 1 -2 -3 -5 6 7 0
13 14 -15 1 -2 -3 -5 6 -7 0
13 14 -15 1 -2 -3 -5 -6 7 0
13 14 -15 1 -2 -3 -5 -6 -7 0
13 14 -15 -1 2 3 5 6 7 157 0
13 14 -15 -1 2 3 5 6 -7 133 0
13 14 -15 -1 2 3 5 -6 7 41 0
13 14 -15 -1 2 3 5 -6 -7 0
13 14 -15 -1 2 3 -5 6 7 0
13 14 -15 -1 2 3 -5 6 -7 0
13 14 -15 -1 2 3 -5 -6 7 0
13 14 -15 -1 2 3 -5 -6 -7 0
13 14 -15 -1 2 -3 5 6 7 105 0
13 14 -15 -1 2 -3 5 6 -7 103 0
13 14 -15 -1 2 -3 5 -6 7 0
13 14 -15 -1 2 -3 5 -6 -7 0
13 14 -15 -1 2 -3 -5 6 7 0
13 14 -15 -1 2 -3 -5 6 -7 0
13 14 -15 -1 2 -3 -5 -6 7 0
13 14 -15 -1 2 -3 -5 -6 -7 0
13 14 -15 -1 -2 3 5 6 7 25 0
13 14 -15 -1 -2 3 5 6 -7 88 0
13 14 -15 -1 -2 3 5 -6 7 0
13 14 -15 -1 -2 3 5 -6 -7 0
13 14 -15 -1 -2 3 -5 6 7 0
13 14 -15 -1 -2 3 -5 6 -7 0
13 14 -15 -1 -2 3 -5 -6 7 0
13 14 -15 -1 -2 3 -5 -6 -7 0
13 14 -15 -1 -2 -3 5 6 7 160 0
13 14 -15 -1 -2 -3 5 6 -7 0
13 14 -15 -1 -2 -3 5 -6 7 0
13 14 -15 -1 -2 -3 5 -6 -7 0
13 14 -15 -1 -2 -3 -5 6 7 0
13 14 -15 -1 -2 -3 -5 6 -7 0
13 14 -15 -1 -2 -3 -5 -6 7 0
13 14 -15 -1 -2 -3 -5 -6 -7 0
13 -14 15 1 2 3 5 6 7 0
13 -14 15 1 2 3 5 6 -7 0
13 -14 15 1 2 3 5 -6 7 134 0
13 -14 15 1 2 3 5 -6 -7 87 0
13 -14 15 1 2 3 -5 6 7 22 0
13 -14 15 1 2 3 -5 6 -7 156 0
13 -14 15 1 2 3 -5 -6 7 112 0
13 -14 15 1 2 3 -5 -6 -7 89 0
13 -14 15 1 2 -3 5 6 7 0
13 -14 15 1 2 -3 5 6 -7 76 0
13 -14 15 1 2 -3 5 -6 7 90 0
13 -14 15 1 2 -3 5 -6 -7 23 0
13 -14 15 1 2 -3 -5 6 7 20 0
13 -14 15 1 2 -3 -5 6 -7 118 0
13 -14 15 1 2 -3 -5 -6 7 36 0
13 -14 15 1 2 -3 -5 -6 -7 0
13 -14 15 1 -2 3 5 6 7 77 0
13 -14 15 1 -2 3 5 6 -7 135 0
13 -14 15 1 -2 3 5 -6 7 108 0
13 -14 15 1 -2 3 5 -6 -7 141 0
13 -14 15 1 -2 3 -5 6 7 51 0
13 -14 15 1 -2 3 -5 6 -7 181 0
13 -14 15 1 -2 3 -5 -6 7 0
13 -14 15 1 -2 3 -5 -6 -7 0
13 -14 15 1 -2 -3 5 6 7 189 0
13 -14 15 1 -2 -3 5 6 -7 65 0
13 -14 15 1 -2 -3 5 -6 7 63 0
13 -14 15 1 -2 -3 5 -6 -7 184 0
13 -14 15 1 -2 -3 -5 6 7 192 0
13 -14 15 1 -2 -3 -5 6 -7 167 0
13 -14 15 1 -2 -3 -5 -6 7 0
13 -14 15 1 -2 -3 -5 -6 -7 0
13 -14 15 -1 2 3 5 6 7 88 0
13 -14 15 -1 2 3 5 6 -7 99 0
13 -14 15 -1 2 3 5 -6 7 61 0
13 -14 15 -1 2 3 5 -6 -7 136 0
13 -14 15 -1 2 3 -5 6 7 50 0
13 -14 15 -1 2 3 -5 6 -7 0
13 -14 15 -1 2 3 -5 -6 7 0
13 -14 15 -1 2 3 -5 -6 -7 0
13 -14 15 -1 2 -3 5 6 7 122 0
13 -14 15 -1 2 -3 5 6 -7 185 0
13 -14 15 -1 2 -3 5 -6 7 159 0
13 -14 15 -1 2 -3 5 -6 -7 166 0
13 -14 15 -1 2 -3 -5 6 7 111 0
13 -14 15 -1 2 -3 -5 6 -7 0
13 -14 15 -1 2 -3 -5 -6 7 0
13 -14 15 -1 2 -3 -5 -6 -7 0
13 -14 15 -1 -2 3 5 6 7 64 0
13 -14 15 -1 -2 3 5 6 -7 184 0
13 -14 15 -1 -2 3 5 -6 7 95 0
13 -14 15 -1 -2 3 5 -6 -7 0
13 -14 15 -1 -2 3 -5 6 7 0
13 -14 15 -1 -2 3 -5 6 -7 0
13 -14 15 -1 -2 3 -5 -6 7 0
13 -14 15 -1 -2 3 -5 -6 -7 0
13 -14 15 -1 -2 -3 5 6 7 133 0
13 -14 15 -1 -2 -3 5 6 -7 168 0
13 -14 15 -1 -2 -3 5 -6 7 0
13 -14 15 -1 -2 -3 5 -6 -7 0
13 -14 15 -1 -2 -3 -5 6 7 0
13 -14 15 -1 -2 -3 -5 6 -7 0
13 -14 15 -1 -2 -3 -5 -6 7 0
13 -14 15 -1 -2 -3 -5 -6 -7 0
13 -14 -15 1 2 3 5 6 7 0
13 -14 -15 1 2 3 5 6 -7 0
13 -14 -15 1 2 3 5 -6 7 0
13 -14 -15 1 2 3 5 -6 -7 0
13 -14 -15 1 2 3 -5 6 7 147 0
13 -14 -15 1 2 3 -5 6 -7 26 0
13 -14 -15 1 2 3 -5 -6 7 128 0
13 -14 -15 1 2 3 -5 -6 -7 42 0
13 -14 -15 1 2 -3 5 6 7 0
13 -14 -15 1 2 -3 5 6 -7 0
13 -14 -15 1 2 -3 5 -6 7 169 0
13 -14 -15 1 2 -3 5 -6 -7 118 0
13 -14 -15 1 2 -3 -5 6 7 161 0
13 -14 -15 1 2 -3 -5 6 -7 23 0
13 -14 -15 1 2 -3 -5 -6 7 118 0
13 -14 -15 1 2 -3 -5 -6 -7 0
13 -14 -15 1 -2 3 5 6 7 0
13 -14 -15 1 -2 3 5 6 -7 96 0
13 -14 -15 1 -2 3 5 -6 7 66 0
13 -14 -15 1 -2 3 5 -6 -7 142 0
13 -14 -15 1 -2 3 -5 6 7 137 0
13 -14 -15 1 -2 3 -5 6 -7 142 0
13 -14 -15 1 -2 3 -5 -6 7 77 0
13 -14 -15 1 -2 3 -5 -6 -7 0
13 -14 -15 1 -2 -3 5 6 7 0
13 -14 -15 1 -2 -3 5 6 -7 0
13 -14 -15 1 -2 -3 5 -6 7 79 0
13 -14 -15 1 -2 -3 5 -6 -7 162 0
13 -14 -15 1 -2 -3 -5 6 7 64 0
13 -14 -15 1 -2 -3 -5 6 -7 138 0
13 -14 -15 1 -2 -3 -5 -6 7 82 0
13 -14 -15 1 -2 -3 -5 -6 -7 0
13 -14 -15 -1 2 3 5 6 7 0
13 -14 -15 -1 2 3 5 6 -7 67 0
13 -14 -15 -1 2 3 5 -6 7 108 0
13 -14 -15 -1 2 3 5 -6 -7 129 0
13 -14 -15 -1 2 3 -5 6 7 184 0
13 -14 -15 -1 2 3 -5 6 -7 139 0
13 -14 -15 -1 2 3 -5 -6 7 0
13 -14 -15 -1 2 3 -5 -6 -7 0
13 -14 -15 -1 2 -3 5 6 7 0
13 -14 -15 -1 2 -3 5 6 -7 34 0
13 -14 -15 -1 2 -3 5 -6 7 68 0
13 -14 -15 -1 2 -3 5 -6 -7 163 0
13 -14 -15 -1 2 -3 -5 6 7 189 0
13 -14 -15 -1 2 -3 -5 6 -7 0
13 -14 -15 -1 2 -3 -5 -6 7 0
13 -14 -15 -1 2 -3 -5 -6 -7 0
13 -14 -15 -1 -2 3 5 6 7 88 0
13 -14 -15 -1 -2 3 5 6 -7 117 0
13 -14 -15 -1 -2 3 5 -6 7 34 0
13 -14 -15 -1 -2 3 5 -6 -7 43 0
13 -14 -15 -1 -2 3 -5 6 7 0
13 -14 -15 -1 -2 3 -5 6 -7 0
13 -14 -15 -1 -2 3 -5 -6 7 0
13 -14 -15 -1 -2 3 -5 -6 -7 0
13 -14 -15 -1 -2 -3 5 6 7 130 0
13 -14 -15 -1 -2 -3 5 6 -7 182 0
13 -14 -15 -1 -2 -3 5 -6 7 194 0
13 -14 -15 -1 -2 -3 5 -6 -7 190 0
13 -14 -15 -1 -2 -3 -5 6 7 0
13 -14 -15 -1 -2 -3 -5 6 -7 0
13 -14 -15 -1 -2 -3 -5 -6 7 0
13 -14 -15 -1 -2 -3 -5 -6 -7 0
-13 14 15 1 2 3 5 6 7 0
-13 14 15 1 2 3 5 6 -7 0
-13 14 15 1 2 3 5 -6 7 0
-13 14 15 1 2 3 5 -6 -7 0
-13 14 15 1 2 3 -5 6 7 0
-13 14 15 1 2 3 -5 6 -7 75 0
-13 14 15 1 2 3 -5 -6 7 102 0
-13 14 15 1 2 3 -5 -6 -7 52 0
-13 14 15 1 2 -3 5 6 7 0
-13 14 15 1 2 -3 5 6 -7 0
-13 14 15 1 2 -3 5 -6 7 0
-13 14 15 1 2 -3 5 -6 -7 81 0
-13 14 15 1 2 -3 -5 6 7 125 0
-13 14 15 1 2 -3 -5 6 -7 69 0
-13 14 15 1 2 -3 -5 -6 7 94 0
-13 14 15 1 2 -3 -5 -6 -7 175 0
-13 14 15 1 -2 3 5 6 7 0
-13 14 15 1 -2 3 5 6 -7 0
-13 14 15 1 -2 3 5 -6 7 0
-13 14 15 1 -2 3 5 -6 -7 42 0
-13 14 15 1 -2 3 -5 6 7 44 0
-13 14 15 1 -2 3 -5 6 -7 164 0
-13 14 15 1 -2 3 -5 -6 7 37 0
-13 14 15 1 -2 3 -5 -6 -7 0
-13 14 15 1 -2 -3 5 6 7 0
-13 14 15 1 -2 -3 5 6 -7 0
-13 14 15 1 -2 -3 5 -6 7 183 0
-13 14 15 1 -2 -3 5 -6 -7 176 0
-13 14 15 1 -2 -3 -5 6 7 162 0
-13 14 15 1 -2 -3 -5 6 -7 117 0
-13 14 15 1 -2 -3 -5 -6 7 177 0
-13 14 15 1 -2 -3 -5 -6 -7 0
-13 14 15 -1 2 3 5 6 7 0
-13 14 15 -1 2 3 5 6 -7 0
-13 14 15 -1 2 3 5 -6 7 86 0
-13 14 15 -1 2 3 5 -6 -7 26 0
-13 14 15 -1 2 3 -5 6 7 70 0
-13 14 15 -1 2 3 -5 6 -7 140 0
-13 14 15 -1 2 3 -5 -6 7 55 0
-13 14 15 -1 2 3 -5 -6 -7 0
-13 14 15 -1 2 -3 5 6 7 0
-13 14 15 -1 2 -3 5 6 -7 0
-13 14 15 -1 2 -3 5 -6 7 44 0
-13 14 15 -1 2 -3 5 -6 -7 109 0
-13 14 15 -1 2 -3 -5 6 7 184 0
-13 14 15 -1 2 -3 -5 6 -7 100 0
-13 14 15 -1 2 -3 -5 -6 7 0
-13 14 15 -1 2 -3 -5 -6 -7 0
-13 14 15 -1 -2 3 5 6 7 38 0
-13 14 15 -1 -2 3 5 6 -7 85 0
-13 14 15 -1 -2 3 5 -6 7 71 0
-13 14 15 -1 -2 3 5 -6 -7 46 0
-13 14 15 -1 -2 3 -5 6 7 59 0
-13 14 15 -1 -2 3 -5 6 -7 183 0
-13 14 15 -1 -2 3 -5 -6 7 0
-13 14 15 -1 -2 3 -5 -6 -7 0
-13 14 15 -1 -2 -3 5 6 7 130 0
-13 14 15 -1 -2 -3 5 6 -7 39 0
-13 14 15 -1 -2 -3 5 -6 7 193 0
-13 14 15 -1 -2 -3 5 -6 -7 73 0
-13 14 15 -1 -2 -3 -5 6 7 165 0
-13 14 15 -1 -2 -3 -5 6 -7 0
-13 14 15 -1 -2 -3 -5 -6 7 0
-13 14 15 -1 -2 -3 -5 -6 -7 0
-13 14 -15 1 2 3 5 6 7 0
-13 14 -15 1 2 3 5 6 -7 0
-13 14 -15 1 2 3 5 -6 7 0
-13 14 -15 1 2 3 5 -6 -7 0
-13 14 -15 1 2 3 -5 6 7 0
-13 14 -15 1 2 3 -5 6 -7 0
-13 14 -15 1 2 3 -5 -6 7 152 0
-13 14 -15 1 2 3 -5 -6 -7 142 0
-13 14 -15 1 2 -3 5 6 7 0
-13 14 -15 1 2 -3 5 6 -7 0
-13 14 -15 1 2 -3 5 -6 7 0
-13 14 -15 1 2 -3 5 -6 -7 0
-13 14 -15 1 2 -3 -5 6 7 0
-13 14 -15 1 2 -3 -5 6 -7 36 0
-13 14 -15 1 2 -3 -5 -6 7 112 0
-13 14 -15 1 2 -3 -5 -6 -7 186 0
-13 14 -15 1 -2 3 5 6 7 0
-13 14 -15 1 -2 3 5 6 -7 0
-13 14 -15 1 -2 3 5 -6 7 0
-13 14 -15 1 -2 3 5 -6 -7 126 0
-13 14 -15 1 -2 3 -5 6 7 169 0
-13 14 -15 1 -2 3 -5 6 -7 45 0
-13 14 -15 1 -2 3 -5 -6 7 187 0
-13 14 -15 1 -2 3 -5 -6 -7 86 0
-13 14 -15 1 -2 -3 5 6 7 0
-13 14 -15 1 -2 -3 5 6 -7 0
-13 14 -15 1 -2 -3 5 -6 7 0
-13 14 -15 1 -2 -3 5 -6 -7 38 0
-13 14 -15 1 -2 -3 -5 6 7 192 0
-13 14 -15 1 -2 -3 -5 6 -7 26 0
-13 14 -15 1 -2 -3 -5 -6 7 117 0
-13 14 -15 1 -2 -3 -5 -6 -7 74 0
-13 14 -15 -1 2 3 5 6 7 0
-13 14 -15 -1 2 3 5 6 -7 0
-13 14 -15 -1 2 3 5 -6 7 124 0
-13 14 -15 -1 2 3 5 -6 -7 75 0
-13 14 -15 -1 2 3 -5 6 7 64 0
-13 14 -15 -1 2 3 -5 6 -7 18 0
-13 14 -15 -1 2 3 -5 -6 7 80 0
-13 14 -15 -1 2 3 -5 -6 -7 148 0
-13 14 -15 -1 2 -3 5 6 7 0
-13 14 -15 -1 2 -3 5 6 -7 0
-13 14 -15 -1 2 -3 5 -6 7 169 0
-13 14 -15 -1 2 -3 5 -6 -7 58 0
-13 14 -15 -1 2 -3 -5 6 7 47 0
-13 14 -15 -1 2 -3 -5 6 -7 27 0
-13 14 -15 -1 2 -3 -5 -6 7 28 0
-13 14 -15 -1 2 -3 -5 -6 -7 0
-13 14 -15 -1 -2 3 5 6 7 0
-13 14 -15 -1 -2 3 5 6 -7 88 0
-13 14 -15 -1 -2 3 5 -6 7 85 0
-13 14 -15 -1 -2 3 5 -6 -7 173 0
-13 14 -15 -1 -2 3 -5 6 7 98 0
-13 14 -15 -1 -2 3 -5 6 -7 60 0
-13 14 -15 -1 -2 3 -5 -6 7 0
-13 14 -15 -1 -2 3 -5 -6 -7 0
-13 14 -15 -1 -2 -3 5 6 7 0
-13 14 -15 -1 -2 -3 5 6 -7 106 0
-13 14 -15 -1 -2 -3 5 -6 7 29 0
-13 14 -15 -1 -2 -3 5 -6 -7 143 0
-13 14 -15 -1 -2 -3 -5 6 7 171 0
-13 14 -15 -1 -2 -3 -5 6 -7 149 0
-13 14 -15 -1 -2 -3 -5 -6 7 0
-13 14 -15 -1 -2 -3 -5 -6 -7 0
-13 -14 15 1 2 3 5 6 7 0
-13 -14 15 1 2 3 5 6 -7 0
-13 -14 15 1 2 3 5 -6 7 0
-13 -14 15 1 2 3 5 -6 -7 0
-13 -14 15 1 2 3 -5 6 7 0
-13 -14 15 1 2 3 -5 6 -7 0
-13 -14 15 1 2 3 -5 -6 7 81 0
-13 -14 15 1 2 3 -5 -6 -7 91 0
-13 -14 15 1 2 -3 5 6 7 0
-13 -14 15 1 2 -3 5 6 -7 0
-13 -14 15 1 2 -3 5 -6 7 0
-13 -14 15 1 2 -3 5 -6 -7 0
-13 -14 15 1 2 -3 -5 6 7 0
-13 -14 15 1 2 -3 -5 6 -7 0
-13 -14 15 1 2 -3 -5 -6 7 170 0
-13 -14 15 1 2 -3 -5 -6 -7 110 0
-13 -14 15 1 -2 3 5 6 7 0
-13 -14 15 1 -2 3 5 6 -7 0
-13 -14 15 1 -2 3 5 -6 7 0
-13 -14 15 1 -2 3 5 -6 -7 0
-13 -14 15 1 -2 3 -5 6 7 0
-13 -14 15 1 -2 3 -5 6 -7 165 0
-13 -14 15 1 -2 3 -5 -6 7 87 0
-13 -14 15 1 -2 3 -5 -6 -7 92 0
-13 -14 15 1 -2 -3 5 6 7 0
-13 -14 15 1 -2 -3 5 6 -7 0
-13 -14 15 1 -2 -3 5 -6 7 0
-13 -14 15 1 -2 -3 5 -6 -7 0
-13 -14 15 1 -2 -3 -5 6 7 0
-13 -14 15 1 -2 -3 -5 6 -7 53 0
-13 -14 15 1 -2 -3 -5 -6 7 188 0
-13 -14 15 1 -2 -3 -5 -6 -7 30 0
-13 -14 15 -1 2 3 5 6 7 0
-13 -14 15 -1 2 3 5 6 -7 0
-13 -14 15 -1 2 3 5 -6 7 0
-13 -14 15 -1 2 3 5 -6 -7 107 0
-13 -14 15 -1 2 3 -5 6 7 50 0
-13 -14 15 -1 2 3 -5 6 -7 119 0
-13 -14 15 -1 2 3 -5 -6 7 150 0
-13 -14 15 -1 2 3 -5 -6 -7 145 0
-13 -14 15 -1 2 -3 5 6 7 0
-13 -14 15 -1 2 -3 5 6 -7 0
-13 -14 15 -1 2 -3 5 -6 7 0
-13 -14 15 -1 2 -3 5 -6 -7 183 0
-13 -14 15 -1 2 -3 -5 6 7 54 0
-13 -14 15 -1 2 -3 -5 6 -7 151 0
-13 -14 15 -1 2 -3 -5 -6 7 31 0
-13 -14 15 -1 2 -3 -5 -6 -7 192 0
-13 -14 15 -1 -2 3 5 6 7 0
-13 -14 15 -1 -2 3 5 6 -7 0
-13 -14 15 -1 -2 3 5 -6 7 111 0
-13 -14 15 -1 -2 3 5 -6 -7 178 0
-13 -14 15 -1 -2 3 -5 6 7 83 0
-13 -14 15 -1 -2 3 -5 6 -7 123 0
-13 -14 15 -1 -2 3 -5 -6 7 174 0
-13 -14 15 -1 -2 3 -5 -6 -7 0
-13 -14 15 -1 -2 -3 5 6 7 0
-13 -14 15 -1 -2 -3 5 6 -7 66 0
-13 -14 15 -1 -2 -3 5 -6 7 146 0
-13 -14 15 -1 -2 -3 5 -6 -7 56 0
-13 -14 15 -1 -2 -3 -5 6 7 72 0
-13 -14 15 -1 -2 -3 -5 6 -7 179 0
-13 -14 15 -1 -2 -3 -5 -6 7 131 0
-13 -14 15 -1 -2 -3 -5 -6 -7 0
-13 -14 -15 1 2 3 5 6 7 0
-13 -14 -15 1 2 3 5 6 -7 0
-13 -14 -15 1 2 3 5 -6 7 0
-13 -14 -15 1 2 3 5 -6 -7 0
-13 -14 -15 1 2 3 -5 6 7 0
-13 -14 -15 1 2 3 -5 6 -7 0
-13 -14 -15 1 2 3 -5 -6 7 0
-13 -14 -15 1 2 3 -5 -6 -7 89 0
-13 -14 -15 1 2 -3 5 6 7 0
-13 -14 -15 1 2 -3 5 6 -7 0
-13 -14 -15 1 2 -3 5 -6 7 0
-13 -14 -15 1 2 -3 5 -6 -7 0
-13 -14 -15 1 2 -3 -5 6 7 0
-13 -14 -15 1 2 -3 -5 6 -7 0
-13 -14 -15 1 2 -3 -5 -6 7 0
-13 -14 -15 1 2 -3 -5 -6 -7 171 0
-13 -14 -15 1 -2 3 5 6 7 0
-13 -14 -15 1 -2 3 5 6 -7 0
-13 -14 -15 1 -2 3 5 -6 7 0
-13 -14 -15 1 -2 3 5 -6 -7 0
-13 -14 -15 1 -2 3 -5 6 7 0
-13 -14 -15 1 -2 3 -5 6 -7 0
-13 -14 -15 1 -2 3 -5 -6 7 77 0
-13 -14 -15 1 -2 3 -5 -6 -7 78 0
-13 -14 -15 1 -2 -3 5 6 7 0
-13 -14 -15 1 -2 -3 5 6 -7 0
-13 -14 -15 1 -2 -3 5 -6 7 0
-13 -14 -15 1 -2 -3 5 -6 -7 0
-13 -14 -15 1 -2 -3 -5 6 7 0
-13 -14 -15 1 -2 -3 -5 6 -7 0
-13 -14 -15 1 -2 -3 -5 -6 7 0
-13 -14 -15 1 -2 -3 -5 -6 -7 101 0
-13 -14 -15 -1 2 3 5 6 7 0
-13 -14 -15 -1 2 3 5 6 -7 0
-13 -14 -15 -1 2 3 5 -6 7 0
-13 -14 -15 -1 2 3 5 -6 -7 0
-13 -14 -15 -1 2 3 -5 6 7 0
-13 -14 -15 -1 2 3 -5 6 -7 0
-13 -14 -15 -1 2 3 -5 -6 7 172 0
-13 -14 -15 -1 2 3 -5 -6 -7 191 0
-13 -14 -15 -1 2 -3 5 6 7 0
-13 -14 -15 -1 2 -3 5 6 -7 0
-13 -14 -15 -1 2 -3 5 -6 7 0
-13 -14 -15 -1 2 -3 5 -6 -7 0
-13 -14 -15 -1 2 -3 -5 6 7 0
-13 -14 -15 -1 2 -3 -5 6 -7 122 0
-13 -14 -15 -1 2 -3 -5 -6 7 28 0
-13 -14 -15 -1 2 -3 -5 -6 -7 35 0
-13 -14 -15 -1 -2 3 5 6 7 0
-13 -14 -15 -1 -2 3 5 6 -7 0
-13 -14 -15 -1 -2 3 5 -6 7 0
-13 -14 -15 -1 -2 3 5 -6 -7 0
-13 -14 -15 -1 -2 3 -5 6 7 0
-13 -14 -15 -1 -2 3 -5 6 -7 93 0
-13 -14 -15 -1 -2 3 -5 -6 7 97 0
-13 -14 -15 -1 -2 3 -5 -6 -7 17 0
-13 -14 -15 -1 -2 -3 5 6 7 0
-13 -14 -15 -1 -2 -3 5 6 -7 0
-13 -14 -15 -1 -2 -3 5 -6 7 32 0
-13 -14 -15 -1 -2 -3 5 -6 -7 180 0
-13 -14 -15 -1 -2 -3 -5 6 7 127 0
-13 -14 -15 -1 -2 -3 -5 6 -7 84 0
-13 -14 -15 -1 -2 -3 -5 -6 7 33 0
-13 -14 -15 -1 -2 -3 -5 -6 -7 17 0
195 196 197 9 10 11 13 14 15 199 0
195 196 197 9 10 11 13 14 -15 198 0
195 196 197 9 10 11 13 -14 15 318 0
195 196 197 9 10 11 13 -14 -15 0
195 196 197 9 10 11 -13 14 15 0
195 196 197 9 10 11 -13 14 -15 0
195 196 197 9 10 11 -13 -14 15 0
195 196 197 9 10 11 -13 -14 -15 0
195 196 197 9 10 -11 13 14 15 199 0
195 196 197 9 10 -11 13 14 -15 233 0
195 196 197 9 10 -11 13 -14 15 0
195 196 197 9 10 -11 13 -14 -15 0
195 196 197 9 10 -11 -13 14 15 0
195 196 197 9 10 -11 -13 14 -15 0
195 196 197 9 10 -11 -13 -14 15 0
195 196 197 9 10 -11 -13 -14 -15 0
195 196 197 9 -10 11 13 14 15 262 0
195 196 197 9 -10 11 13 14 -15 214 0
195 196 197 9 -10 11 13 -14 15 0
195 196 197 9 -10 11 13 -14 -15 0
195 196 197 9 -10 11 -13 14 15 0
195 196 197 9 -10 11 -13 14 -15 0
195 196 197 9 -10 11 -13 -14 15 0
195 196 197 9 -10 11 -13 -14 -15 0
195 196 197 9 -10 -11 13 14 15 201 0
195 196 197 9 -10 -11 13 14 -15 292 0
195 196 197 9 -10 -11 13 -14 15 0
195 196 197 9 -10 -11 13 -14 -15 0
195 196 197 9 -10 -11 -13 14 15 0
195 196 197 9 -10 -11 -13 14 -15 0
195 196 197 9 -10 -11 -13 -14 15 0
195 196 197 9 -10 -11 -13 -14 -15 0
195 196 197 -9 10 11 13 14 15 263 0
195 196 197 -9 10 11 13 14 -15 318 0
195 196 197 -9 10 11 13 -14 15 0
195 196 197 -9 10 11 13 -14 -15 0
195 196 197 -9 10 11 -13 14 15 0
195 196 197 -9 10 11 -13 14 -15 0
195 196 197 -9 10 11 -13 -14 15 0
195 196 197 -9 10 11 -13 -14 -15 0
195 196 197 -9 10 -11 13 14 15 202 0
195 196 197 -9 10 -11 13 14 -15 0
195 196 197 -9 10 -11 13 -14 15 0
195 196 197 -9 10 -11 13 -14 -15 0
195 196 197 -9 10 -11 -13 14 15 0
195 196 197 -9 10 -11 -13 14 -15 0
195 196 197 -9 10 -11 -13 -14 15 0
195 196 197 -9 10 -11 -13 -14 -15 0
195 196 197 -9 -10 11 13 14 15 203 0
195 196 197 -9 -10 11 13 14 -15 0
195 196 197 -9 -10 11 13 -14 15 0
195 196 197 -9 -10 11 13 -14 -15 0
195 196 197 -9 -10 11 -13 14 15 0
195 196 197 -9 -10 11 -13 14 -15 0
195 196 197 -9 -10 11 -13 -14 15 0
195 196 197 -9 -10 11 -13 -14 -15 0
195 196 197 -9 -10 -11 13 14 15 221 0
195 196 197 -9 -10 -11 13 14 -15 0
195 196 197 -9 -10 -11 13 -14 15 0
195 196 197 -9 -10 -11 13 -14 -15 0
195 196 197 -9 -10 -11 -13 14 15 0
195 196 197 -9 -10 -11 -13 14 -15 0
195 196 197 -9 -10 -11 -13 -14 15 0
195 196 197 -9 -10 -11 -13 -14 -15 0
195 196 -197 9 10 11 13 14 15 0
195 196 -197 9 10 11 13 14 -15 234 0
195 196 -197 9 10 11 13 -14 15 253 0
195 196 -197 9 10 11 13 -14 -15 285 0
195 196 -197 9 10 11 -13 14 15 0
195 196 -197 9 10 11 -13 14 -15 0
195 196 -197 9 10 11 -13 -14 15 0
195 196 -197 9 10 11 -13 -14 -15 0
195 196 -197 9 10 -11 13 14 15 0
195 196 -197 9 10 -11 13 14 -15 264 0
195 196 -197 9 10 -11 13 -14 15 276 0
195 196 -197 9 10 -11 13 -14 -15 297 0
195 196 -197 9 10 -11 -13 14 15 0
195 196 -197 9 10 -11 -13 14 -15 0
195 196 -197 9 10 -11 -13 -14 15 0
195 196 -197 9 10 -11 -13 -14 -15 0
195 196 -197 9 -10 11 13 14 15 286 0
195 196 -197 9 -10 11 13 14 -15 246 0
195 196 -197 9 -10 11 13 -14 15 205 0
195 196 -197 9 -10 11 13 -14 -15 0
195 196 -197 9 -10 11 -13 14 15 0
195 196 -197 9 -10 11 -13 14 -15 0
195 196 -197 9 -10 11 -13 -14 15 0
195 196 -197 9 -10 11 -13 -14 -15 0
195 196 -197 9 -10 -11 13 14 15 215 0
195 196 -197 9 -10 -11 13 14 -15 271 0
195 196 -197 9 -10 -11 13 -14 15 216 0
195 196 -197 9 -10 -11 13 -14 -15 0
195 196 -197 9 -10 -11 -13 14 15 0
195 196 -197 9 -10 -11 -13 14 -15 0
195 196 -197 9 -10 -11 -13 -14 15 0
195 196 -197 9 -10 -11 -13 -14 -15 0
195 196 -197 -9 10 11 13 14 15 237 0
195 196 -197 -9 10 11 13 14 -15 280 0
195 196 -197 -9 10 11 13 -14 15 0
195 196 -197 -9 10 11 13 -14 -15 0
195 196 -197 -9 10 11 -13 14 15 0
195 196 -197 -9 10 11 -13 14 -15 0
195 196 -197 -9 10 11 -13 -14 15 0
195 196 -197 -9 10 11 -13 -14 -15 0
195 196 -197 -9 10 -11 13 14 15 217 0
195 196 -197 -9 10 -11 13 14 -15 308 0
195 196 -197 -9 10 -11 13 -14 15 0
195 196 -197 -9 10 -11 13 -14 -15 0
195 196 -197 -9 10 -11 -13 14 15 0
195 196 -197 -9 10 -11 -13 14 -15 0
195 196 -197 -9 10 -11 -13 -14 15 0
195 196 -197 -9 10 -11 -13 -14 -15 0
195 196 -197 -9 -10 11 13 14 15 238 0
195 196 -197 -9 -10 11 13 14 -15 252 0
195 196 -197 -9 -10 11 13 -14 15 0
195 196 -197 -9 -10 11 13 -14 -15 0
195 196 -197 -9 -10 11 -13 14 15 0
195 196 -197 -9 -10 11 -13 14 -15 0
195 196 -197 -9 -10 11 -13 -14 15 0
195 196 -197 -9 -10 11 -13 -14 -15 0
195 196 -197 -9 -10 -11 13 14 15 309 0
195 196 -197 -9 -10 -11 13 14 -15 313 0
195 196 -197 -9 -10 -11 13 -14 15 0
195 196 -197 -9 -10 -11 13 -14 -15 0
195 196 -197 -9 -10 -11 -13 14 15 0
195 196 -197 -9 -10 -11 -13 14 -15 0
195 196 -197 -9 -10 -11 -13 -14 15 0
195 196 -197 -9 -10 -11 -13 -14 -15 0
195 -196 197 9 10 11 13 14 15 0
195 -196 197 9 10 11 13 14 -15 0
195 -196 197 9 10 11 13 -14 15 275 0
195 -196 197 9 10 11 13 -14 -15 223 0
195 -196 197 9 10 11 -13 14 15 295 0
195 -196 197 9 10 11 -13 14 -15 0
195 -196 197 9 10 11 -13 -14 15 0
195 -196 197 9 10 11 -13 -14 -15 0
195 -196 197 9 10 -11 13 14 15 0
195 -196 197 9 10 -11 13 14 -15 0
195 -196 197 9 10 -11 13 -14 15 239 0
195 -196 197 9 10 -11 13 -14 -15 218 0
195 -196 197 9 10 -11 -13 14 15 286 0
195 -196 197 9 10 -11 -13 14 -15 0
195 -196 197 9 10 -11 -13 -14 15 0
195 -196 197 9 10 -11 -13 -14 -15 0
195 -196 197 9 -10 11 13 14 15 0
195 -196 197 9 -10 11 13 14 -15 209 0
195 -196 197 9 -10 11 13 -14 15 227 0
195 -196 197 9 -10 11 13 -14 -15 231 0
195 -196 197 9 -10 11 -13 14 15 0
195 -196 197 9 -10 11 -13 14 -15 0
195 -196 197 9 -10 11 -13 -14 15 0
195 -196 197 9 -10 11 -13 -14 -15 0
195 -196 197 9 -10 -11 13 14 15 0
195 -196 197 9 -10 -11 13 14 -15 292 0
195 -196 197 9 -10 -11 13 -14 15 202 0
195 -196 197 9 -10 -11 13 -14 -15 277 0
195 -196 197 9 -10 -11 -13 14 15 0
195 -196 197 9 -10 -11 -13 14 -15 0
195 -196 197 9 -10 -11 -13 -14 15 0
195 -196 197 9 -10 -11 -13 -14 -15 0
195 -196 197 -9 10 11 13 14 15 0
195 -196 197 -9 10 11 13 14 -15 265 0
195 -196 197 -9 10 11 13 -14 15 248 0
195 -196 197 -9 10 11 13 -14 -15 235 0
195 -196 197 -9 10 11 -13 14 15 0
195 -196 197 -9 10 11 -13 14 -15 0
195 -196 197 -9 10 11 -13 -14 15 0
195 -196 197 -9 10 11 -13 -14 -15 0
195 -196 197 -9 10 -11 13 14 15 0
195 -196 197 -9 10 -11 13 14 -15 236 0
195 -196 197 -9 10 -11 13 -14 15 267 0
195 -196 197 -9 10 -11 13 -14 -15 0
195 -196 197 -9 10 -11 -13 14 15 0
195 -196 197 -9 10 -11 -13 14 -15 0
195 -196 197 -9 10 -11 -13 -14 15 0
195 -196 197 -9 10 -11 -13 -14 -15 0
195 -196 197 -9 -10 11 13 14 15 0
195 -196 197 -9 -10 11 13 14 -15 283 0
195 -196 197 -9 -10 11 13 -14 15 295 0
195 -196 197 -9 -10 11 13 -14 -15 0
195 -196 197 -9 -10 11 -13 14 15 0
195 -196 197 -9 -10 11 -13 14 -15 0
195 -196 197 -9 -10 11 -13 -14 15 0
195 -196 197 -9 -10 11 -13 -14 -15 0
195 -196 197 -9 -10 -11 13 14 15 0
195 -196 197 -9 -10 -11 13 14 -15 287 0
195 -196 197 -9 -10 -11 13 -14 15 293 0
195 -196 197 -9 -10 -11 13 -14 -15 0
195 -196 197 -9 -10 -11 -13 14 15 0
195 -196 197 -9 -10 -11 -13 14 -15 0
195 -196 197 -9 -10 -11 -13 -14 15 0
195 -196 197 -9 -10 -11 -13 -14 -15 0
195 -196 -197 9 10 11 13 14 15 0
195 -196 -197 9 10 11 13 14 -15 0
195 -196 -197 9 10 11 13 -14 15 0
195 -196 -197 9 10 11 13 -14 -15 224 0
195 -196 -197 9 10 11 -13 14 15 206 0
195 -196 -197 9 10 11 -13 14 -15 268 0
195 -196 -197 9 10 11 -13 -14 15 245 0
195 -196 -197 9 10 11 -13 -14 -15 0
195 -196 -197 9 10 -11 13 14 15 0
195 -196 -197 9 10 -11 13 14 -15 0
195 -196 -197 9 10 -11 13 -14 15 0
195 -196 -197 9 10 -11 13 -14 -15 240 0
195 -196 -197 9 10 -11 -13 14 15 269 0
195 -196 -197 9 10 -11 -13 14 -15 315 0
195 -196 -197 9 10 -11 -13 -14 15 0
195 -196 -197 9 10 -11 -13 -14 -15 0
195 -196 -197 9 -10 11 13 14 15 0
195 -196 -197 9 -10 11 13 14 -15 0
195 -196 -197 9 -10 11 13 -14 15 0
195 -196 -197 9 -10 11 13 -14 -15 266 0
195 -196 -197 9 -10 11 -13 14 15 204 0
195 -196 -197 9 -10 11 -13 14 -15 0
195 -196 -197 9 -10 11 -13 -14 15 0
195 -196 -197 9 -10 11 -13 -14 -15 0
195 -196 -197 9 -10 -11 13 14 15 0
195 -196 -197 9 -10 -11 13 14 -15 0
195 -196 -197 9 -10 -11 13 -14 15 209 0
195 -196 -197 9 -10 -11 13 -14 -15 207 0
195 -196 -197 9 -10 -11 -13 14 15 255 0
195 -196 -197 9 -10 -11 -13 14 -15 0
195 -196 -197 9 -10 -11 -13 -14 15 0
195 -196 -197 9 -10 -11 -13 -14 -15 0
195 -196 -197 -9 10 11 13 14 15 0
195 -196 -197 -9 10 11 13 14 -15 0
195 -196 -197 -9 10 11 13 -14 15 291 0
195 -196 -197 -9 10 11 13 -14 -15 311 0
195 -196 -197 -9 10 11 -13 14 15 245 0
195 -196 -197 -9 10 11 -13 14 -15 0
195 -196 -197 -9 10 11 -13 -14 15 0
195 -196 -197 -9 10 11 -13 -14 -15 0
195 -196 -197 -9 10 -11 13 14 15 0
195 -196 -197 -9 10 -11 13 14 -15 0
195 -196 -197 -9 10 -11 13 -14 15 259 0
195 -196 -197 -9 10 -11 13 -14 -15 211 0
195 -196 -197 -9 10 -11 -13 14 15 278 0
195 -196 -197 -9 10 -11 -13 14 -15 0
195 -196 -197 -9 10 -11 -13 -14 15 0
195 -196 -197 -9 10 -11 -13 -14 -15 0
195 -196 -197 -9 -10 11 13 14 15 0
195 -196 -197 -9 -10 11 13 14 -15 0
195 -196 -197 -9 -10 11 13 -14 15 270 0
195 -196 -197 -9 -10 11 13 -14 -15 219 0
195 -196 -197 -9 -10 11 -13 14 15 0
195 -196 -197 -9 -10 11 -13 14 -15 0
195 -196 -197 -9 -10 11 -13 -14 15 0
195 -196 -197 -9 -10 11 -13 -14 -15 0
195 -196 -197 -9 -10 -11 13 14 15 0
195 -196 -197 -9 -10 -11 13 14 -15 313 0
195 -196 -197 -9 -10 -11 13 -14 15 294 0
195 -196 -197 -9 -10 -11 13 -14 -15 225 0
195 -196 -197 -9 -10 -11 -13 14 15 0
195 -196 -197 -9 -10 -11 -13 14 -15 0
195 -196 -197 -9 -10 -11 -13 -14 15 0
195 -196 -197 -9 -10 -11 -13 -14 -15 0
-195 196 197 9 10 11 13 14 15 0
-195 196 197 9 10 11 13 14 -15 0
-195 196 197 9 10 11 13 -14 15 0
-195 196 197 9 10 11 13 -14 -15 0
-195 196 197 9 10 11 -13 14 15 247 0
-195 196 197 9 10 11 -13 14 -15 320 0
-195 196 197 9 10 11 -13 -14 15 288 0
-195 196 197 9 10 11 -13 -14 -15 0
-195 196 197 9 10 -11 13 14 15 0
-195 196 197 9 10 -11 13 14 -15 0
-195 196 197 9 10 -11 13 -14 15 0
-195 196 197 9 10 -11 13 -14 -15 0
-195 196 197 9 10 -11 -13 14 15 312 0
-195 196 197 9 10 -11 -13 14 -15 248 0
-195 196 197 9 10 -11 -13 -14 15 261 0
-195 196 197 9 10 -11 -13 -14 -15 0
-195 196 197 9 -10 11 13 14 15 0
-195 196 197 9 -10 11 13 14 -15 0
-195 196 197 9 -10 11 13 -14 15 0
-195 196 197 9 -10 11 13 -14 -15 0
-195 196 197 9 -10 11 -13 14 15 204 0
-195 196 197 9 -10 11 -13 14 -15 279 0
-195 196 197 9 -10 11 -13 -14 15 0
-195 196 197 9 -10 11 -13 -14 -15 0
-195 196 197 9 -10 -11 13 14 15 0
-195 196 197 9 -10 -11 13 14 -15 0
-195 196 197 9 -10 -11 13 -14 15 0
-195 196 197 9 -10 -11 13 -14 -15 277 0
-195 196 197 9 -10 -11 -13 14 15 317 0
-195 196 197 9 -10 -11 -13 14 -15 249 0
-195 196 197 9 -10 -11 -13 -14 15 0
-195 196 197 9 -10 -11 -13 -14 -15 0
-195 196 197 -9 10 11 13 14 15 0
-195 196 197 -9 10 11 13 14 -15 0
-195 196 197 -9 10 11 13 -14 15 0
-195 196 197 -9 10 11 13 -14 -15 298 0
-195 196 197 -9 10 11 -13 14 15 208 0
-195 196 197 -9 10 11 -13 14 -15 304 0
-195 196 197 -9 10 11 -13 -14 15 0
-195 196 197 -9 10 11 -13 -14 -15 0
-195 196 197 -9 10 -11 13 14 15 0
-195 196 197 -9 10 -11 13 14 -15 0
-195 196 197 -9 10 -11 13 -14 15 0
-195 196 197 -9 10 -11 13 -14 -15 319 0
-195 196 197 -9 10 -11 -13 14 15 272 0
-195 196 197 -9 10 -11 -13 14 -15 0
-195 196 197 -9 10 -11 -13 -14 15 0
-195 196 197 -9 10 -11 -13 -14 -15 0
-195 196 197 -9 -10 11 13 14 15 0
-195 196 197 -9 -10 11 13 14 -15 0
-195 196 197 -9 -10 11 13 -14 15 0
-195 196 197 -9 -10 11 13 -14 -15 303 0
-195 196 197 -9 -10 11 -13 14 15 228 0
-195 196 197 -9 -10 11 -13 14 -15 0
-195 196 197 -9 -10 11 -13 -14 15 0
-195 196 197 -9 -10 11 -13 -14 -15 0
-195 196 197 -9 -10 -11 13 14 15 0
-195 196 197 -9 -10 -11 13 14 -15 250 0
-195 196 197 -9 -10 -11 13 -14 15 281 0
-195 196 197 -9 -10 -11 13 -14 -15 276 0
-195 196 197 -9 -10 -11 -13 14 15 235 0
-195 196 197 -9 -10 -11 -13 14 -15 0
-195 196 197 -9 -10 -11 -13 -14 15 0
-195 196 197 -9 -10 -11 -13 -14 -15 0
-195 196 -197 9 10 11 13 14 15 0
-195 196 -197 9 10 11 13 14 -15 0
-195 196 -197 9 10 11 13 -14 15 0
-195 196 -197 9 10 11 13 -14 -15 0
-195 196 -197 9 10 11 -13 14 15 0
-195 196 -197 9 10 11 -13 14 -15 0
-195 196 -197 9 10 11 -13 -14 15 310 0
-195 196 -197 9 10 11 -13 -14 -15 210 0
-195 196 -197 9 10 -11 13 14 15 0
-195 196 -197 9 10 -11 13 14 -15 0
-195 196 -197 9 10 -11 13 -14 15 0
-195 196 -197 9 10 -11 13 -14 -15 0
-195 196 -197 9 10 -11 -13 14 15 0
-195 196 -197 9 10 -11 -13 14 -15 299 0
-195 196 -197 9 10 -11 -13 -14 15 321 0
-195 196 -197 9 10 -11 -13 -14 -15 0
-195 196 -197 9 -10 11 13 14 15 0
-195 196 -197 9 -10 11 13 14 -15 0
-195 196 -197 9 -10 11 13 -14 15 0
-195 196 -197 9 -10 11 13 -14 -15 0
-195 196 -197 9 -10 11 -13 14 15 0
-195 196 -197 9 -10 11 -13 14 -15 256 0
-195 196 -197 9 -10 11 -13 -14 15 295 0
-195 196 -197 9 -10 11 -13 -14 -15 0
-195 196 -197 9 -10 -11 13 14 15 0
-195 196 -197 9 -10 -11 13 14 -15 0
-195 196 -197 9 -10 -11 13 -14 15 0
-195 196 -197 9 -10 -11 13 -14 -15 0
-195 196 -197 9 -10 -11 -13 14 15 212 0
-195 196 -197 9 -10 -11 -13 14 -15 222 0
-195 196 -197 9 -10 -11 -13 -14 15 316 0
-195 196 -197 9 -10 -11 -13 -14 -15 0
-195 196 -197 -9 10 11 13 14 15 0
-195 196 -197 -9 10 11 13 14 -15 0
-195 196 -197 -9 10 11 13 -14 15 0
-195 196 -197 -9 10 11 13 -14 -15 0
-195 196 -197 -9 10 11 -13 14 15 288 0
-195 196 -197 -9 10 11 -13 14 -15 251 0
-195 196 -197 -9 10 11 -13 -14 15 289 0
-195 196 -197 -9 10 11 -13 -14 -15 0
-195 196 -197 -9 10 -11 13 14 15 0
-195 196 -197 -9 10 -11 13 14 -15 0
-195 196 -197 -9 10 -11 13 -14 15 0
-195 196 -197 -9 10 -11 13 -14 -15 0
-195 196 -197 -9 10 -11 -13 14 15 205 0
-195 196 -197 -9 10 -11 -13 14 -15 198 0
-195 196 -197 -9 10 -11 -13 -14 15 278 0
-195 196 -197 -9 10 -11 -13 -14 -15 0
-195 196 -197 -9 -10 11 13 14 15 0
-195 196 -197 -9 -10 11 13 14 -15 0
-195 196 -197 -9 -10 11 13 -14 15 0
-195 196 -197 -9 -10 11 13 -14 -15 305 0
-195 196 -197 -9 -10 11 -13 14 15 257 0
-195 196 -197 -9 -10 11 -13 14 -15 300 0
-195 196 -197 -9 -10 11 -13 -14 15 0
-195 196 -197 -9 -10 11 -13 -14 -15 0
-195 196 -197 -9 -10 -11 13 14 15 0
-195 196 -197 -9 -10 -11 13 14 -15 0
-195 196 -197 -9 -10 -11 13 -14 15 0
-195 196 -197 -9 -10 -11 13 -14 -15 306 0
-195 196 -197 -9 -10 -11 -13 14 15 213 0
-195 196 -197 -9 -10 -11 -13 14 -15 215 0
-195 196 -197 -9 -10 -11 -13 -14 15 0
-195 196 -197 -9 -10 -11 -13 -14 -15 0
-195 -196 197 9 10 11 13 14 15 0
-195 -196 197 9 10 11 13 14 -15 0
-195 -196 197 9 10 11 13 -14 15 0
-195 -196 197 9 10 11 13 -14 -15 0
-195 -196 197 9 10 11 -13 14 15 0
-195 -196 197 9 10 11 -13 14 -15 0
-195 -196 197 9 10 11 -13 -14 15 245 0
-195 -196 197 9 10 11 -13 -14 -15 220 0
-195 -196 197 9 10 -11 13 14 15 0
-195 -196 197 9 10 -11 13 14 -15 0
-195 -196 197 9 10 -11 13 -14 15 0
-195 -196 197 9 10 -11 13 -14 -15 0
-195 -196 197 9 10 -11 -13 14 15 0
-195 -196 197 9 10 -11 -13 14 -15 0
-195 -196 197 9 10 -11 -13 -14 15 229 0
-195 -196 197 9 10 -11 -13 -14 -15 295 0
-195 -196 197 9 -10 11 13 14 15 0
-195 -196 197 9 -10 11 13 14 -15 0
-195 -196 197 9 -10 11 13 -14 15 0
-195 -196 197 9 -10 11 13 -14 -15 0
-195 -196 197 9 -10 11 -13 14 15 0
-195 -196 197 9 -10 11 -13 14 -15 0
-195 -196 197 9 -10 11 -13 -14 15 270 0
-195 -196 197 9 -10 11 -13 -14 -15 243 0
-195 -196 197 9 -10 -11 13 14 15 0
-195 -196 197 9 -10 -11 13 14 -15 0
-195 -196 197 9 -10 -11 13 -14 15 0
-195 -196 197 9 -10 -11 13 -14 -15 0
-195 -196 197 9 -10 -11 -13 14 15 0
-195 -196 197 9 -10 -11 -13 14 -15 245 0
-195 -196 197 9 -10 -11 -13 -14 15 308 0
-195 -196 197 9 -10 -11 -13 -14 -15 314 0
-195 -196 197 -9 10 11 13 14 15 0
-195 -196 197 -9 10 11 13 14 -15 0
-195 -196 197 -9 10 11 13 -14 15 0
-195 -196 197 -9 10 11 13 -14 -15 0
-195 -196 197 -9 10 11 -13 14 15 0
-195 -196 197 -9 10 11 -13 14 -15 282 0
-195 -196 197 -9 10 11 -13 -14 15 244 0
-195 -196 197 -9 10 11 -13 -14 -15 241 0
-195 -196 197 -9 10 -11 13 14 15 0
-195 -196 197 -9 10 -11 13 14 -15 0
-195 -196 197 -9 10 -11 13 -14 15 0
-195 -196 197 -9 10 -11 13 -14 -15 0
-195 -196 197 -9 10 -11 -13 14 15 0
-195 -196 197 -9 10 -11 -13 14 -15 234 0
-195 -196 197 -9 10 -11 -13 -14 15 232 0
-195 -196 197 -9 10 -11 -13 -14 -15 0
-195 -196 197 -9 -10 11 13 14 15 0
-195 -196 197 -9 -10 11 13 14 -15 0
-195 -196 197 -9 -10 11 13 -14 15 0
-195 -196 197 -9 -10 11 13 -14 -15 0
-195 -196 197 -9 -10 11 -13 14 15 242 0
-195 -196 197 -9 -10 11 -13 14 -15 273 0
-195 -196 197 -9 -10 11 -13 -14 15 226 0
-195 -196 197 -9 -10 11 -13 -14 -15 0
-195 -196 197 -9 -10 -11 13 14 15 0
-195 -196 197 -9 -10 -11 13 14 -15 0
-195 -196 197 -9 -10 -11 13 -14 15 0
-195 -196 197 -9 -10 -11 13 -14 -15 290 0
-195 -196 197 -9 -10 -11 -13 14 15 284 0
-195 -196 197 -9 -10 -11 -13 14 -15 258 0
-195 -196 197 -9 -10 -11 -13 -14 15 240 0
-195 -196 197 -9 -10 -11 -13 -14 -15 0
-195 -196 -197 9 10 11 13 14 15 0
-195 -196 -197 9 10 11 13 14 -15 0
-195 -196 -197 9 10 11 13 -14 15 0
-195 -196 -197 9 10 11 13 -14 -15 0
-195 -196 -197 9 10 11 -13 14 15 0
-195 -196 -197 9 10 11 -13 14 -15 0
-195 -196 -197 9 10 11 -13 -14 15 0
-195 -196 -197 9 10 11 -13 -14 -15 322 0
-195 -196 -197 9 10 -11 13 14 15 0
-195 -196 -197 9 10 -11 13 14 -15 0
-195 -196 -197 9 10 -11 13 -14 15 0
-195 -196 -197 9 10 -11 13 -14 -15 0
-195 -196 -197 9 10 -11 -13 14 15 0
-195 -196 -197 9 10 -11 -13 14 -15 0
-195 -196 -197 9 10 -11 -13 -14 15 0
-195 -196 -197 9 10 -11 -13 -14 -15 270 0
-195 -196 -197 9 -10 11 13 14 15 0
-195 -196 -197 9 -10 11 13 14 -15 0
-195 -196 -197 9 -10 11 13 -14 15 0
-195 -196 -197 9 -10 11 13 -14 -15 0
-195 -196 -197 9 -10 11 -13 14 15 0
-195 -196 -197 9 -10 11 -13 14 -15 0
-195 -196 -197 9 -10 11 -13 -14 15 0
-195 -196 -197 9 -10 11 -13 -14 -15 296 0
-195 -196 -197 9 -10 -11 13 14 15 0
-195 -196 -197 9 -10 -11 13 14 -15 0
-195 -196 -197 9 -10 -11 13 -14 15 0
-195 -196 -197 9 -10 -11 13 -14 -15 0
-195 -196 -197 9 -10 -11 -13 14 15 0
-195 -196 -197 9 -10 -11 -13 14 -15 0
-195 -196 -197 9 -10 -11 -13 -14 15 250 0
-195 -196 -197 9 -10 -11 -13 -14 -15 307 0
-195 -196 -197 -9 10 11 13 14 15 0
-195 -196 -197 -9 10 11 13 14 -15 0
-195 -196 -197 -9 10 11 13 -14 15 0
-195 -196 -197 -9 10 11 13 -14 -15 0
-195 -196 -197 -9 10 11 -13 14 15 0
-195 -196 -197 -9 10 11 -13 14 -15 0
-195 -196 -197 -9 10 11 -13 -14 15 254 0
-195 -196 -197 -9 10 11 -13 -14 -15 260 0
-195 -196 -197 -9 10 -11 13 14 15 0
-195 -196 -197 -9 10 -11 13 14 -15 0
-195 -196 -197 -9 10 -11 13 -14 15 0
-195 -196 -197 -9 10 -11 13 -14 -15 0
-195 -196 -197 -9 10 -11 -13 14 15 0
-195 -196 -197 -9 10 -11 -13 14 -15 0
-195 -196 -197 -9 10 -11 -13 -14 15 301 0
-195 -196 -197 -9 10 -11 -13 -14 -15 199 0
-195 -196 -197 -9 -10 11 13 14 15 0
-195 -196 -197 -9 -10 11 13 14 -15 0
-195 -196 -197 -9 -10 11 13 -14 15 0
-195 -196 -197 -9 -10 11 13 -14 -15 0
-195 -196 -197 -9 -10 11 -13 14 15 0
-195 -196 -197 -9 -10 11 -13 14 -15 0
-195 -196 -197 -9 -10 11 -13 -14 15 302 0
-195 -196 -197 -9 -10 11 -13 -14 -15 199 0
-195 -196 -197 -9 -10 -11 13 14 15 0
-195 -196 -197 -9 -10 -11 13 14 -15 0
-195 -196 -197 -9 -10 -11 13 -14 15 0
-195 -196 -197 -9 -10 -11 13 -14 -15 0
-195 -196 -197 -9 -10 -11 -13 14 15 0
-195 -196 -197 -9 -10 -11 -13 14 -15 230 0
-195 -196 -197 -9 -10 -11 -13 -14 15 274 0
-195 -196 -197 -9 -10 -11 -13 -14 -15 199 0
